(set-info :Origin "This instance was generated by: BanditFuzz-- an RL fuzzer for SMT solvers" )
(set-info :Author "Joe Scott, Fed Mora, Vijay Ganesh" )
(set-info :Contact "Joe Scott, joseph.scott@uwaterloo.ca")
; solvers/z3.sh
; 	time => 0.2211601734161377
; 	answer => err
; solvers/bitwuzla.sh
; 	time => 0.18851089477539062
; 	answer => err
; solvers/cvc4.sh
; 	time => 0.18539690971374512
; 	answer => err
(set-logic QF_BV)
(declare-const bool_0 Bool)
(declare-const bool_1 Bool)
(declare-const bool_2 Bool)
(declare-const bool_3 Bool)
(declare-const bool_4 Bool)
(declare-const bv_0 (_ BitVec 8))
(declare-const bv_1 (_ BitVec 8))
(declare-const bv_2 (_ BitVec 8))
(declare-const bv_3 (_ BitVec 8))
(declare-const bv_4 (_ BitVec 8))
(assert (bvuge (bvand (bvand bv_3 bv_3) (bvxor bv_0 bv_0)) (bvudiv (bvudiv #x0000000e  #x000000e4 ) (bvnand #x00000064  bv_0))))
(assert (=> (bvult (bvxnor bv_0 #x0000004c ) (bvor #x00000063  bv_4)) (and (bvsge #x000000d7  bv_1) (bvsge bv_3 #x0000004c ))))
(assert (=> (bvugt (bvashr #x00000022  bv_0) (bvudiv bv_1 #x0000003d )) (bvsgt (bvshl #x00000022  #x000000f5 ) (bvxnor #x0000002d  #x00000047 ))))
(assert (bvugt (bvudiv (bvand #x0000008c  bv_0) (bvmul bv_3 bv_1)) (bvshl (bvsdiv bv_2 #x00000006 ) (bvsmod bv_3 bv_0))))
(assert (bvuge (bvsmod (bvand bv_4 #x0000003f ) (bvnand bv_2 bv_0)) (bvudiv (bvnand bv_0 bv_1) (bvsmod bv_0 #x000000de ))))
(check-sat)
(exit)
